
<<< setup


<<< generate

Version identifier: 22.1.1.0 | 2022-11-28 | 9160aff4d
CPXPARAM_TimeLimit                               1800
Found incumbent of value 0.000000 after 0.00 sec. (0.03 ticks)
Tried aggregator 1 time.
MIP Presolve eliminated 41 rows and 0 columns.
MIP Presolve modified 1520 coefficients.
Reduced MIP has 950 rows, 820 columns, and 3420 nonzeros.
Reduced MIP has 780 binaries, 40 generals, 0 SOSs, and 0 indicators.
Presolve time = 0.00 sec. (1.78 ticks)
Probing time = 0.00 sec. (1.51 ticks)
Tried aggregator 1 time.
Detecting symmetries...
Reduced MIP has 950 rows, 820 columns, and 3420 nonzeros.
Reduced MIP has 780 binaries, 40 generals, 0 SOSs, and 0 indicators.
Presolve time = 0.00 sec. (4.31 ticks)
Probing time = 0.00 sec. (1.55 ticks)
Clique table members: 752.
MIP emphasis: balance optimality and feasibility.
MIP search method: dynamic search.
Parallel mode: deterministic, using up to 8 threads.
Root relaxation solution time = 0.00 sec. (3.74 ticks)

        Nodes                                         Cuts/
   Node  Left     Objective  IInf  Best Integer    Best Bound    ItCnt     Gap

*     0+    0                            0.0000       35.0000              --- 
*     0+    0                            4.0000       35.0000           775.00%
      0     0       35.0000   244        4.0000       35.0000      362  775.00%
      0     0       35.0000    47        4.0000      Cuts: 23      395  775.00%
      0     0       35.0000    74        4.0000      Cuts: 86      483  775.00%
      0     0       35.0000    52        4.0000      Cuts: 44      514  775.00%
      0     0       35.0000    54        4.0000      Cuts: 36      544  775.00%
*     0+    0                           30.0000       35.0000            16.67%
*     0+    0                           32.0000       35.0000             9.37%
      0     2       35.0000    54       32.0000       35.0000      544    9.37%
Elapsed time = 0.07 sec. (102.58 ticks, tree = 0.02 MB, solutions = 4)
*    56+    4                           33.0000       35.0000             6.06%
*   450   328      integral     0       34.0000       35.0000     5157    2.94%
   2508   554       35.0000    12       34.0000       35.0000    23422    2.94%
   5535   573       35.0000     2       34.0000       35.0000    45702    2.94%

Performing restart 1

Repeating presolve.
Tried aggregator 1 time.
MIP Presolve eliminated 0 rows and 20 columns.
Reduced MIP has 950 rows, 800 columns, and 3040 nonzeros.
Reduced MIP has 760 binaries, 40 generals, 0 SOSs, and 0 indicators.
Presolve time = 0.00 sec. (1.83 ticks)
Tried aggregator 1 time.
Reduced MIP has 950 rows, 800 columns, and 3040 nonzeros.
Reduced MIP has 760 binaries, 40 generals, 0 SOSs, and 0 indicators.
Presolve time = 0.00 sec. (4.13 ticks)
Represolve time = 0.01 sec. (9.10 ticks)
   7146     0       35.0000    84       34.0000      Cuts: 79    62495    2.94%
   7146     0       35.0000   104       34.0000     Cuts: 337    62641    2.94%
   7146     0       35.0000    67       34.0000     Cuts: 141    62732    2.94%
   7146     0       35.0000    74       34.0000     Cuts: 337    62892    2.94%
   7146     0       35.0000    33       34.0000      Cuts: 41    62935    2.94%
   7146     0       35.0000    71       34.0000     Cuts: 164    63024    2.94%
   7146     0       35.0000    40       34.0000      Cuts: 40    63061    2.94%
   7146     0       35.0000    57       34.0000     Cuts: 140    63159    2.94%
   7146     2       35.0000    42       34.0000       35.0000    63159    2.94%
*  7558   183      integral     0       35.0000       35.0000    69438    0.00%
   7598     5       35.0000    34       35.0000       35.0000    63162    0.00%
   7599     4       35.0000    39       35.0000       35.0000    63162    0.00%

Clique cuts applied:  10
Cover cuts applied:  1
Implied bound cuts applied:  46
Flow cuts applied:  2
Mixed integer rounding cuts applied:  7
Zero-half cuts applied:  5
Gomory fractional cuts applied:  1

Root node processing (before b&c):
  Real time             =    0.07 sec. (102.17 ticks)
Parallel b&c, 8 threads:
  Real time             =    0.97 sec. (1699.10 ticks)
  Sync time (average)   =    0.17 sec.
  Wait time (average)   =    0.00 sec.
                          ------------
Total (root+branch&cut) =    1.04 sec. (1801.28 ticks)

<<< solve


OBJECTIVE: 35

<<< post process


<<< done

